(set-logic HORN)
(set-info :source |
    Benchmark: C_VC
    Output by Princess (http://www.philipp.ruemmer.org/princess.shtml)
|)
(set-info :status unknown)
(declare-fun inv_main114 (Int Int Int Int) Bool)
(declare-fun inv_main133 (Int Int Int Int Int Int Int Int Int Int Int Int) Bool)
(declare-fun inv_main138 (Int Int Int Int Int Int Int Int Int Int Int Int Int) Bool)
(declare-fun inv_main156 (Int Int Int Int Int Int Int Int Int Int Int Int) Bool)
(declare-fun inv_main169 (Int Int Int Int Int Int Int Int Int Int) Bool)
(declare-fun inv_main208 (Int Int Int Int Int Int Int Int Int Int) Bool)
(declare-fun inv_main219 (Int Int Int Int Int Int Int Int) Bool)
(declare-fun inv_main246 (Int Int Int Int Int Int Int Int Int Int Int Int) Bool)
(declare-fun inv_main273 (Int Int Int Int Int Int Int Int Int Int Int Int) Bool)
(declare-fun inv_main283 (Int Int Int Int Int Int Int Int Int Int Int Int Int) Bool)
(declare-fun inv_main297 (Int Int Int Int Int Int Int Int Int Int Int Int) Bool)
(declare-fun inv_main300 (Int Int Int Int Int Int Int Int Int Int Int Int Int) Bool)
(declare-fun inv_main321 (Int Int Int Int Int Int Int Int Int Int Int Int) Bool)
(declare-fun inv_main67 (Int Int) Bool)
(declare-fun inv_main77 (Int Int Int Int) Bool)
(declare-fun inv_main91 (Int Int Int) Bool)
(declare-fun inv_main94 (Int Int Int Int Int) Bool)
(assert (forall ((var0 Int) (var1 Int) (var2 Int) (var3 Int) (var4 Int) (var5 Int) (var6 Int) (var7 Int) (var8 Int) (var9 Int) (var10 Int)) (or (not (and (inv_main219 var1 var7 var0 var5 var1 var10 var3 var4) (and (and (and (and (not (= var5 (+ var4 1))) (= var2 var1)) (= 1 var6)) (= 1 var9)) (= (+ var4 1) var8)))) (inv_main208 var1 var6 var7 var0 var9 var5 var2 var10 var3 var8))))
(assert (forall ((var0 Int) (var1 Int) (var2 Int) (var3 Int) (var4 Int) (var5 Int) (var6 Int) (var7 Int) (var8 Int) (var9 Int) (var10 Int)) (or (not (and (inv_main219 var1 var6 var0 var4 var2 var10 var3 var9) (and (and (and (not (= var2 var1)) (= 1 var5)) (= 1 var8)) (= (+ var9 1) var7)))) (inv_main208 var1 var5 var6 var0 var8 var4 var2 var10 var3 var7))))
(assert (forall ((var0 Int) (var1 Int) (var2 Int) (var3 Int) (var4 Int) (var5 Int) (var6 Int) (var7 Int) (var8 Int) (var9 Int)) (or (not (and (inv_main208 var1 var5 var6 var0 var8 var4 var2 var9 var3 var7) (not (= var5 1)))) (inv_main219 var1 var6 var0 var4 var2 var9 var3 var7))))
(assert (forall ((var0 Int) (var1 Int) (var2 Int) (var3 Int) (var4 Int) (var5 Int) (var6 Int) (var7 Int) (var8 Int) (var9 Int) (var10 Int)) (or (not (and (inv_main219 var2 var7 var0 (+ var9 1) var2 var10 var5 var9) (and (and (and (and (= var6 (+ var9 1)) (= var4 var2)) (= (+ var9 1) var8)) (= 1 var1)) (= 1 var3)))) (inv_main208 var2 var1 var7 var0 var3 var6 var4 var10 var5 var8))))
(assert (forall ((var0 Int) (var1 Int) (var2 Int) (var3 Int) (var4 Int) (var5 Int) (var6 Int) (var7 Int) (var8 Int) (var9 Int) (var10 Int) (var11 Int)) (or (not (and (inv_main208 var1 1 var8 var0 var10 var5 var2 var11 var3 var9) (and (and (= var7 1) (= 2 var4)) (= 1 var6)))) (inv_main133 var1 var7 var8 var0 var10 var5 var2 var11 var3 var9 var4 var6))))
(assert (forall ((var0 Int) (var1 Int) (var2 Int) (var3 Int) (var4 Int) (var5 Int) (var6 Int) (var7 Int) (var8 Int) (var9 Int) (var10 Int) (var11 Int) (var12 Int)) (or (not (and (inv_main133 var3 var7 var8 var0 var11 var6 var4 0 var5 var10 var1 var2) (and (= var12 0) (= 1 var9)))) (inv_main138 var3 var7 var8 var0 var11 var6 var4 var12 var5 var10 var1 var2 var9))))
(assert (forall ((var0 Int) (var1 Int) (var2 Int) (var3 Int) (var4 Int) (var5 Int) (var6 Int) (var7 Int) (var8 Int) (var9 Int) (var10 Int) (var11 Int) (var12 Int)) (or (not (and (inv_main133 var3 var8 var9 var0 var11 var6 var4 var12 var5 var10 0 var2) (and (and (not (= var12 0)) (= var1 0)) (= 1 var7)))) (inv_main138 var3 var8 var9 var0 var11 var6 var4 var12 var5 var10 var1 var2 var7))))
(assert (forall ((var0 Int) (var1 Int) (var2 Int) (var3 Int) (var4 Int) (var5 Int) (var6 Int) (var7 Int) (var8 Int) (var9 Int) (var10 Int) (var11 Int) (var12 Int)) (or (not (and (inv_main133 var3 var8 var9 var0 var11 var7 var5 var12 var6 var10 var1 var2) (and (and (not (= var1 0)) (not (= var12 0))) (= 0 var4)))) (inv_main138 var3 var8 var9 var0 var11 var7 var5 var12 var6 var10 var1 var2 var4))))
(assert (forall ((var0 Int) (var1 Int) (var2 Int) (var3 Int) (var4 Int) (var5 Int) (var6 Int) (var7 Int) (var8 Int) (var9 Int) (var10 Int) (var11 Int) (var12 Int)) (or (not (and (inv_main138 var3 var8 var9 var0 var11 var6 var4 var12 var5 var10 var1 var2 var7) (and (not (= var12 0)) (not (= var7 0))))) (inv_main156 var3 var8 var9 var0 var11 var6 var4 var12 var5 var10 var1 var2))))
(assert (forall ((var0 Int) (var1 Int) (var2 Int) (var3 Int) (var4 Int) (var5 Int) (var6 Int) (var7 Int) (var8 Int) (var9 Int) (var10 Int) (var11 Int) (var12 Int)) (or (not (and (inv_main138 var3 var8 var9 var0 var11 var6 var4 0 var5 var10 var1 var2 var7) (and (not (= var7 0)) (= var12 0)))) (inv_main156 var3 var8 var9 var0 var11 var6 var4 var12 var5 var10 var1 var2))))
(assert (forall ((var0 Int) (var1 Int) (var2 Int) (var3 Int) (var4 Int) (var5 Int) (var6 Int) (var7 Int) (var8 Int) (var9 Int) (var10 Int) (var11 Int)) (or (not (and (inv_main138 var4 var8 var9 var0 var11 var6 var5 0 0 var10 var1 var2 var7) (and (not (= var3 0)) (not (= var7 0))))) (inv_main169 var4 var8 var9 var0 var11 var6 var5 var10 var1 var2))))
(assert (forall ((var0 Int) (var1 Int) (var2 Int) (var3 Int) (var4 Int) (var5 Int) (var6 Int) (var7 Int) (var8 Int) (var9 Int) (var10 Int) (var11 Int) (var12 Int)) (or (not (and (inv_main138 var4 var9 var10 var0 var12 var7 var5 0 var6 var11 var1 var2 var8) (and (and (and (not (= var6 1)) (not (= var6 0))) (not (= var3 0))) (not (= var8 0))))) (inv_main169 var4 var9 var10 var0 var12 var7 var5 var11 var1 var2))))
(assert (forall ((var0 Int) (var1 Int) (var2 Int) (var3 Int) (var4 Int) (var5 Int) (var6 Int) (var7 Int) (var8 Int) (var9 Int) (var10 Int) (var11 Int)) (or (not (and (inv_main156 var3 var7 var8 var0 var10 var6 var4 var11 var5 var9 var1 var2) (not (= var1 0)))) (inv_main133 var3 var7 var8 var0 var10 var6 var4 var11 var5 var9 var1 var2))))
(assert (forall ((var0 Int) (var1 Int) (var2 Int) (var3 Int) (var4 Int) (var5 Int) (var6 Int) (var7 Int) (var8 Int) (var9 Int) (var10 Int) (var11 Int)) (or (not (and (inv_main156 var3 var7 var8 var0 var10 var6 var4 var11 var5 var9 0 var2) (= var1 0))) (inv_main133 var3 var7 var8 var0 var10 var6 var4 var11 var5 var9 var1 var2))))
(assert (forall ((var0 Int) (var1 Int) (var2 Int) (var3 Int) (var4 Int) (var5 Int) (var6 Int) (var7 Int) (var8 Int) (var9 Int) (var10 Int)) (or (not (and (inv_main156 var1 var5 var6 var0 var9 var4 var2 var10 var3 var8 0 0) (not (= var7 0)))) (inv_main208 var1 var5 var6 var0 var9 var4 var2 var10 var3 var8))))
(assert (forall ((var0 Int) (var1 Int) (var2 Int) (var3 Int) (var4 Int) (var5 Int) (var6 Int) (var7 Int) (var8 Int) (var9 Int) (var10 Int) (var11 Int)) (or (not (and (inv_main156 var2 var6 var7 var0 var10 var5 var3 var11 var4 var9 0 var1) (and (and (not (= var1 1)) (not (= var1 0))) (not (= var8 0))))) (inv_main208 var2 var6 var7 var0 var10 var5 var3 var11 var4 var9))))
(assert (forall ((var0 Int) (var1 Int) (var2 Int) (var3 Int) (var4 Int) (var5 Int) (var6 Int) (var7 Int) (var8 Int) (var9 Int) (var10 Int)) (or (not (and (inv_main156 var1 var5 var6 var0 var9 var4 var2 var10 var3 var8 0 1) (not (= var7 0)))) (inv_main219 var1 var6 var0 var4 var2 var10 var3 var8))))
(assert (forall ((var0 Int) (var1 Int) (var2 Int) (var3 Int) (var4 Int) (var5 Int) (var6 Int) (var7 Int) (var8 Int) (var9 Int) (var10 Int) (var11 Int)) (or (not (and (inv_main169 var3 0 var8 var0 var11 var6 var4 var9 var1 var2) (and (and (= var7 0) (= 2 var10)) (= 1 var5)))) (inv_main156 var3 var7 var8 var0 var11 var6 var4 var10 var5 var9 var1 var2))))
(assert (forall ((var0 Int) (var1 Int) (var2 Int) (var3 Int) (var4 Int) (var5 Int) (var6 Int) (var7 Int) (var8 Int) (var9 Int) (var10 Int) (var11 Int) (var12 Int) (var13 Int) (var14 Int) (var15 Int) (var16 Int)) (or (not (and (inv_main138 var11 var14 var3 var0 var16 var12 var2 0 1 var5 var8 var1 var13) (and (and (and (and (and (not (= var9 0)) (not (= var13 0))) (= 0 var15)) (= 1 var10)) (= (+ var12 1) var4)) (= var7 var6)))) (inv_main169 var7 var15 var3 var0 var10 var4 var6 var5 var8 var1))))
(assert (forall ((var0 Int) (var1 Int) (var2 Int) (var3 Int) (var4 Int) (var5 Int) (var6 Int) (var7 Int) (var8 Int) (var9 Int) (var10 Int) (var11 Int) (var12 Int) (var13 Int) (var14 Int)) (or (not (and (inv_main169 var10 var13 var5 var0 var14 var11 var3 var6 var9 var2) (and (and (and (and (not (= var13 0)) (= 0 var8)) (= 1 var4)) (= (+ var11 1) var7)) (= var12 var1)))) (inv_main169 var12 var8 var5 var0 var4 var7 var1 var6 var9 var2))))
(assert (forall ((var0 Int) (var1 Int) (var2 Int) (var3 Int) (var4 Int) (var5 Int)) (or (not (and (inv_main77 var4 var0 var3 var2) (and (and (not (= var2 0)) (= 0 var5)) (= var1 0)))) (inv_main91 var4 var0 var3))))
(assert (forall ((var0 Int) (var1 Int) (var2 Int) (var3 Int) (var4 Int)) (or (not (and (inv_main77 var3 var0 var2 0) (and (= var4 0) (= var1 0)))) (inv_main91 var3 var0 var2))))
(assert true)
(assert (forall ((var0 Int) (var1 Int) (var2 Int) (var3 Int) (var4 Int) (var5 Int) (var6 Int)) (or (not (and (inv_main91 var4 var0 var3) (and (and (and (= 0 var5) (= var2 0)) (= var6 0)) (= var1 0)))) (inv_main94 var4 var0 var3 var2 var5))))
(assert true)
(assert (forall ((var0 Int) (var1 Int) (var2 Int) (var3 Int) (var4 Int) (var5 Int) (var6 Int) (var7 Int) (var8 Int) (var9 Int) (var10 Int) (var11 Int) (var12 Int) (var13 Int)) (or (not (and (inv_main283 var10 var12 var6 var0 var13 var11 var4 var8 var5 var7 var9 var1 var3) (and (not (= var3 0)) (= 0 var2)))) (inv_main297 var10 var12 var6 var0 var13 var11 var4 var2 var5 var7 var9 var1))))
(assert (forall ((var0 Int) (var1 Int) (var2 Int) (var3 Int) (var4 Int) (var5 Int) (var6 Int) (var7 Int) (var8 Int) (var9 Int) (var10 Int) (var11 Int)) (or (not (inv_main283 var3 var7 var8 var0 var10 var6 var4 var11 var5 var9 var1 var2 0)) (inv_main297 var3 var7 var8 var0 var10 var6 var4 var11 var5 var9 var1 var2))))
(assert (forall ((var0 Int) (var1 Int) (var2 Int) (var3 Int) (var4 Int) (var5 Int) (var6 Int) (var7 Int) (var8 Int) (var9 Int) (var10 Int) (var11 Int) (var12 Int)) (or (not (and (inv_main297 var3 var7 var8 1 var11 var6 var4 var12 var5 var10 var1 1) (and (and (= var0 1) (= var2 1)) (= 1 var9)))) (inv_main300 var3 var7 var8 var0 var11 var6 var4 var12 var5 var10 var1 var2 var9))))
(assert (forall ((var0 Int) (var1 Int) (var2 Int) (var3 Int) (var4 Int) (var5 Int) (var6 Int) (var7 Int) (var8 Int) (var9 Int) (var10 Int) (var11 Int) (var12 Int)) (or (not (and (inv_main297 var3 var7 var8 var0 var11 var6 var4 var12 var5 var10 var1 var2) (and (not (= var2 1)) (= 0 var9)))) (inv_main300 var3 var7 var8 var0 var11 var6 var4 var12 var5 var10 var1 var2 var9))))
(assert (forall ((var0 Int) (var1 Int) (var2 Int) (var3 Int) (var4 Int) (var5 Int) (var6 Int) (var7 Int) (var8 Int) (var9 Int) (var10 Int) (var11 Int) (var12 Int)) (or (not (and (inv_main297 var3 var7 var8 var0 var11 var6 var4 var12 var5 var10 var1 1) (and (and (not (= var0 1)) (= var2 1)) (= 0 var9)))) (inv_main300 var3 var7 var8 var0 var11 var6 var4 var12 var5 var10 var1 var2 var9))))
(assert true)
(assert (forall ((var0 Int) (var1 Int) (var2 Int) (var3 Int) (var4 Int) (var5 Int)) (or (not (and (inv_main67 var3 var0) (and (and (and (= 0 var5) (= var2 0)) (= var4 0)) (= var1 0)))) (inv_main77 var3 var0 var2 var5))))
(assert true)
(assert (forall ((var0 Int) (var1 Int) (var2 Int) (var3 Int) (var4 Int) (var5 Int) (var6 Int)) (or (not (and (inv_main94 1 var0 var3 var1 var2) (and (and (and (not (= var2 0)) (= 2 var6)) (= 0 var5)) (= var4 0)))) (inv_main114 var6 var0 var3 var1))))
(assert (forall ((var0 Int) (var1 Int) (var2 Int) (var3 Int) (var4 Int) (var5 Int)) (or (not (and (inv_main94 1 var0 var3 var2 0) (and (and (= 2 var4) (= var5 0)) (= var1 0)))) (inv_main114 var4 var0 var3 var2))))
(assert (forall ((var0 Int) (var1 Int) (var2 Int) (var3 Int) (var4 Int) (var5 Int) (var6 Int)) (or (not (and (inv_main94 var5 var0 var4 var1 var3) (and (and (and (not (= var5 1)) (not (= var3 0))) (= 0 var2)) (= var6 0)))) (inv_main114 var5 var0 var4 var1))))
(assert (forall ((var0 Int) (var1 Int) (var2 Int) (var3 Int) (var4 Int) (var5 Int)) (or (not (and (inv_main94 var4 var0 var3 var2 0) (and (and (not (= var4 1)) (= var5 0)) (= var1 0)))) (inv_main114 var4 var0 var3 var2))))
(assert (forall ((var0 Int) (var1 Int) (var2 Int) (var3 Int) (var4 Int) (var5 Int) (var6 Int) (var7 Int) (var8 Int) (var9 Int) (var10 Int) (var11 Int)) (or (not (and (inv_main138 var3 var7 var8 var0 var10 var6 var4 var11 var5 var9 var1 var2 0) (not (= var10 1)))) (inv_main246 var3 var7 var8 var0 var10 var6 var4 var11 var5 var9 var1 var2))))
(assert (forall ((var0 Int) (var1 Int) (var2 Int) (var3 Int) (var4 Int) (var5 Int) (var6 Int) (var7 Int) (var8 Int) (var9 Int) (var10 Int) (var11 Int) (var12 Int)) (or (not (and (inv_main273 var3 var7 1 var0 var10 var6 var4 var11 1 var9 var1 var2) (and (and (= var8 1) (= var5 1)) (= 1 var12)))) (inv_main283 var3 var7 var8 var0 var10 var6 var4 var11 var5 var9 var1 var2 var12))))
(assert (forall ((var0 Int) (var1 Int) (var2 Int) (var3 Int) (var4 Int) (var5 Int) (var6 Int) (var7 Int) (var8 Int) (var9 Int) (var10 Int) (var11 Int) (var12 Int)) (or (not (and (inv_main273 var4 var8 var9 var0 var11 var7 var5 var12 var6 var10 var1 var2) (and (not (= var6 1)) (= 0 var3)))) (inv_main283 var4 var8 var9 var0 var11 var7 var5 var12 var6 var10 var1 var2 var3))))
(assert (forall ((var0 Int) (var1 Int) (var2 Int) (var3 Int) (var4 Int) (var5 Int) (var6 Int) (var7 Int) (var8 Int) (var9 Int) (var10 Int) (var11 Int) (var12 Int)) (or (not (and (inv_main273 var4 var8 var9 var0 var11 var7 var5 var12 1 var10 var1 var2) (and (and (not (= var9 1)) (= var6 1)) (= 0 var3)))) (inv_main283 var4 var8 var9 var0 var11 var7 var5 var12 var6 var10 var1 var2 var3))))
(assert (forall ((var0 Int) (var1 Int) (var2 Int) (var3 Int) (var4 Int) (var5 Int) (var6 Int) (var7 Int) (var8 Int) (var9 Int) (var10 Int) (var11 Int) (var12 Int) (var13 Int)) (or (not (and (inv_main300 var8 var10 1 var13 var12 var9 var3 var6 var4 var5 var7 var1 var11) (and (and (not (= var11 0)) (= 2 var0)) (= 0 var2)))) (inv_main321 var8 var10 var0 var13 var12 var9 var3 var6 var4 var5 var2 var1))))
(assert (forall ((var0 Int) (var1 Int) (var2 Int) (var3 Int) (var4 Int) (var5 Int) (var6 Int) (var7 Int) (var8 Int) (var9 Int) (var10 Int) (var11 Int)) (or (not (and (inv_main300 var3 var7 1 var0 var10 var6 var4 var11 var5 var8 var1 var2 0) (= 2 var9))) (inv_main321 var3 var7 var9 var0 var10 var6 var4 var11 var5 var8 var1 var2))))
(assert (forall ((var0 Int) (var1 Int) (var2 Int) (var3 Int) (var4 Int) (var5 Int) (var6 Int) (var7 Int) (var8 Int) (var9 Int) (var10 Int) (var11 Int) (var12 Int) (var13 Int)) (or (not (and (inv_main300 var8 var11 var4 var0 var13 var10 var2 var6 var3 var5 var7 var1 var12) (and (and (not (= var4 1)) (not (= var12 0))) (= 0 var9)))) (inv_main321 var8 var11 var4 var0 var13 var10 var2 var6 var3 var5 var9 var1))))
(assert (forall ((var0 Int) (var1 Int) (var2 Int) (var3 Int) (var4 Int) (var5 Int) (var6 Int) (var7 Int) (var8 Int) (var9 Int) (var10 Int) (var11 Int)) (or (not (and (inv_main300 var3 var7 var8 var0 var10 var6 var4 var11 var5 var9 var1 var2 0) (not (= var8 1)))) (inv_main321 var3 var7 var8 var0 var10 var6 var4 var11 var5 var9 var1 var2))))
(assert true)
(assert true)
(assert true)
(assert (forall ((var0 Int) (var1 Int) (var2 Int) (var3 Int)) (or (not (and (and (and (= var2 2) (= var0 2)) (= 0 var3)) (= 0 var1))) (inv_main67 var2 var0))))
(assert (forall ((var0 Int) (var1 Int) (var2 Int) (var3 Int) (var4 Int) (var5 Int) (var6 Int) (var7 Int) (var8 Int) (var9 Int) (var10 Int) (var11 Int)) (or (not (and (inv_main114 var8 1 var5 var1) (and (and (and (and (and (and (and (and (= 2 var3) (= var2 0)) (= var7 1)) (= var10 0)) (= var6 0)) (= var4 0)) (= var9 0)) (= var11 0)) (= var0 0)))) (inv_main133 var2 var7 var8 var3 var10 var6 var4 var11 var5 var9 var0 var1))))
(assert (forall ((var0 Int) (var1 Int) (var2 Int) (var3 Int) (var4 Int) (var5 Int) (var6 Int) (var7 Int) (var8 Int) (var9 Int) (var10 Int) (var11 Int)) (or (not (and (inv_main114 var8 var0 var5 var2) (and (and (and (and (and (and (and (and (not (= var0 1)) (= var3 0)) (= var7 1)) (= var10 0)) (= var6 0)) (= var4 0)) (= var9 0)) (= var11 0)) (= var1 0)))) (inv_main133 var3 var7 var8 var0 var10 var6 var4 var11 var5 var9 var1 var2))))
(assert (forall ((var0 Int) (var1 Int) (var2 Int) (var3 Int) (var4 Int) (var5 Int) (var6 Int) (var7 Int) (var8 Int) (var9 Int) (var10 Int) (var11 Int) (var12 Int)) (or (not (and (inv_main138 var3 0 var9 var0 1 var6 var4 var12 var5 var10 var1 var2 0) (and (and (= var8 0) (= 0 var7)) (= 0 var11)))) (inv_main246 var3 var8 var9 var7 var11 var6 var4 var12 var5 var10 var1 var2))))
(assert (forall ((var0 Int) (var1 Int) (var2 Int) (var3 Int) (var4 Int) (var5 Int) (var6 Int) (var7 Int) (var8 Int) (var9 Int) (var10 Int) (var11 Int) (var12 Int)) (or (not (and (inv_main138 var3 1 var9 var0 1 var6 var4 var12 var5 var10 var1 var2 0) (and (and (= var8 1) (= 0 var11)) (= 0 var7)))) (inv_main246 var3 var8 var11 var0 var7 var6 var4 var12 var5 var10 var1 var2))))
(assert (forall ((var0 Int) (var1 Int) (var2 Int) (var3 Int) (var4 Int) (var5 Int) (var6 Int) (var7 Int) (var8 Int) (var9 Int) (var10 Int) (var11 Int)) (or (not (and (inv_main138 var3 var7 var8 var0 1 var6 var4 var10 var5 var9 var1 var2 0) (and (and (not (= var7 1)) (not (= var7 0))) (= 0 var11)))) (inv_main246 var3 var7 var8 var0 var11 var6 var4 var10 var5 var9 var1 var2))))
(assert (forall ((var0 Int) (var1 Int) (var2 Int) (var3 Int) (var4 Int) (var5 Int) (var6 Int) (var7 Int) (var8 Int) (var9 Int) (var10 Int) (var11 Int)) (or (not (and (inv_main246 var2 var7 0 0 var9 var6 var3 var10 var4 var8 var0 var1) (and (= 1 var5) (= 1 var11)))) (inv_main273 var2 var7 var5 var11 var9 var6 var3 var10 var4 var8 var0 var1))))
(assert (forall ((var0 Int) (var1 Int) (var2 Int) (var3 Int) (var4 Int) (var5 Int) (var6 Int) (var7 Int) (var8 Int) (var9 Int) (var10 Int) (var11 Int)) (or (not (and (inv_main246 var3 var7 0 var0 var9 var6 var4 var10 var5 var8 var1 var2) (and (not (= var0 0)) (= 1 var11)))) (inv_main273 var3 var7 var11 var0 var9 var6 var4 var10 var5 var8 var1 var2))))
(assert (forall ((var0 Int) (var1 Int) (var2 Int) (var3 Int) (var4 Int) (var5 Int) (var6 Int) (var7 Int) (var8 Int) (var9 Int) (var10 Int) (var11 Int)) (or (not (and (inv_main246 var2 var6 var7 0 var10 var5 var3 var11 var4 var9 var0 var1) (and (not (= var7 0)) (= 1 var8)))) (inv_main273 var2 var6 var7 var8 var10 var5 var3 var11 var4 var9 var0 var1))))
(assert (forall ((var0 Int) (var1 Int) (var2 Int) (var3 Int) (var4 Int) (var5 Int) (var6 Int) (var7 Int) (var8 Int) (var9 Int) (var10 Int) (var11 Int)) (or (not (and (inv_main246 var3 var7 var8 var0 var10 var6 var4 var11 var5 var9 var1 var2) (and (not (= var0 0)) (not (= var8 0))))) (inv_main273 var3 var7 var8 var0 var10 var6 var4 var11 var5 var9 var1 var2))))
(assert (forall ((var0 Int) (var1 Int) (var2 Int) (var3 Int) (var4 Int) (var5 Int) (var6 Int) (var7 Int) (var8 Int) (var9 Int) (var10 Int) (var11 Int)) (or (not (and (inv_main321 var2 var6 var7 1 var10 var5 var3 0 var4 var9 var0 var1) (and (= var11 0) (= 2 var8)))) (inv_main133 var2 var6 var7 var8 var10 var5 var3 var11 var4 var9 var0 var1))))
(assert (forall ((var0 Int) (var1 Int) (var2 Int) (var3 Int) (var4 Int) (var5 Int) (var6 Int) (var7 Int) (var8 Int) (var9 Int) (var10 Int) (var11 Int)) (or (not (and (inv_main321 var2 var7 var8 1 var10 var6 var3 var11 var4 var9 0 var1) (and (and (not (= var11 0)) (= var0 0)) (= 2 var5)))) (inv_main133 var2 var7 var8 var5 var10 var6 var3 var11 var4 var9 var0 var1))))
(assert (forall ((var0 Int) (var1 Int) (var2 Int) (var3 Int) (var4 Int) (var5 Int) (var6 Int) (var7 Int) (var8 Int) (var9 Int) (var10 Int) (var11 Int)) (or (not (and (inv_main321 var3 var7 var8 var0 var10 var6 var4 0 var5 var9 var1 var2) (and (not (= var0 1)) (= var11 0)))) (inv_main133 var3 var7 var8 var0 var10 var6 var4 var11 var5 var9 var1 var2))))
(assert (forall ((var0 Int) (var1 Int) (var2 Int) (var3 Int) (var4 Int) (var5 Int) (var6 Int) (var7 Int) (var8 Int) (var9 Int) (var10 Int) (var11 Int)) (or (not (and (inv_main321 var3 var7 var8 var0 var10 var6 var4 var11 var5 var9 0 var2) (and (and (not (= var11 0)) (not (= var0 1))) (= var1 0)))) (inv_main133 var3 var7 var8 var0 var10 var6 var4 var11 var5 var9 var1 var2))))
(assert (forall ((var0 Int) (var1 Int) (var2 Int) (var3 Int) (var4 Int) (var5 Int) (var6 Int)) (not (and (inv_main219 var1 var5 var0 var3 var1 var6 var2 var4) (not (= var3 (+ var4 1)))))))
(assert (forall ((var0 Int) (var1 Int) (var2 Int) (var3 Int) (var4 Int) (var5 Int) (var6 Int) (var7 Int)) (not (and (inv_main219 var1 var5 var0 var4 var2 var7 var3 var6) (not (= var2 var1))))))
(check-sat)
